
%    +-----------+
% 8  | | | | | | |
% 7  | | | |3| | |
% 6  | | | | | | |
% 5  | | |1|1|5| |
% 4  | | |1|1| | |
% 3  | |6| | |4| |
% 2  | | |2| | | |
% 1  | | | | | | |
%    +-----------+
n=6;
m=8;
h=2;
%maxT=45;
boxNumber=6;
boxSideLen = [2, 1, 1, 1, 1, 1];
boxStartX  = [3, 3, 4, 5, 5, 2];
boxStartY  = [4, 2, 7, 3, 5, 3];
